100
150
100
100
98
96
94
94
93
92
92
92
91
91
90
89
89
87
87
85
85
81
81
81
80
79
79
78
78
78
78
78
77
77
76
76
76
76
75
75
75
74
73
72
72
69
68
67
66
66
65
64
63
62
61
58
56
56
55
55
54
54
51
49
49
49
48
47
47
46
44
44
44
43
43
40
39
38
38
38
38
37
37
36
35
35
34
32
32
32
31
30
27
27
25
25
24
23
23
22
21
20
